% demand
num_movements = 30;
loading_factor = [1500, 1300, 1100, 1450, 1350, 900, 950, 850, 1750, 1300, 1550, 900, 1600, 1950, 1350, 1300, 1000, 1950, 1750, 1600, 1250, 950, 950, 950, 900, 850, 1250, 1000, 1600, 1550];
pickup_time = [0, 0, 0, 1, 1, 2, 2, 2, 2, 2, 2, 2, 4, 4, 4, 4, 4, 4, 4, 6, 6, 6, 6, 6, 6, 6, 6, 10, 10, 11];
delivery_time = [1, 1, 2, 4, 3, 4, 4, 3, 3, 3, 3, 3, 10, 6, 6, 6, 6, 6, 6, 10, 10, 10, 11, 12, 10, 10, 10, 12, 11, 13];

% transporter definition
total_capacity = 11000;
num_decks = 4;
capacity = [3000, 3000, 1000, 4000];

% ways out of decks
num_ways_out = 2;
paths_out = array3d(decks, ways_out, decks, [
% ways out of deck d1
2, 4, 0, 0, 3, 4, 0, 0, 

% ways out of deck d2
4, 0, 0, 0, 0, 0, 0, 0,	

% ways out of deck d3
4, 0, 0, 0, 0, 0, 0, 0,	

% ways out of deck d4
0, 0, 0, 0,	0, 0, 0, 0,	

]);

